\ENCODING=ISO-8859-1
\Problem name: CKP

Maximize
 obj: x1 + x2 + x3 + x4 + x5 + x6 + x7 + x8 + x9 + x10 + x11 + x12 + x13 + x14
      + x15 + x16 + x17 + x18 + x19 + x20 + x21 + x22 + x23 + x24 + x25 + x26
      + x27 + x28 + x29 + x30 + x31 + x32 + x33 + x34 + x35 + x36 + x37 + x38
      + x39 + x40 + x41 + x42 + x43 + x44 + x45 + x46 + x47 + x48 + x49 + x50
Subject To
 c1: 15375 x1 + 15376 x2 + 15377 x3 + 15410 x4 + 15411 x5 + 15412 x6 + 15445 x7
     + 15446 x8 + 15447 x9 + 16065 x10 + 16066 x11 + 16067 x12 + 16100 x13
     + 16101 x14 + 16102 x15 + 16135 x16 + 16136 x17 + 16137 x18 + 16755 x19
     + 16756 x20 + 16757 x21 + 16790 x22 + 16791 x23 + 15376 x24 + 15410 x25
     + 15411 x26 + 15412 x27 + 15445 x28 + 15446 x29 + 16065 x30 + 16066 x31
     + 16067 x32 + 16100 x33 + 16101 x34 + 16135 x35 + 16136 x36 + 16137 x37
     + 16757 x38 + 16791 x39 + 16792 x40 + 16825 x41 + 16826 x42 + 30026 x43
     + 30027 x44 + 30028 x45 + 30061 x46 + 30096 x47 + 30097 x48 + 30098 x49
     + 30716 x50 >= 457004
 c2: 15375 x1 + 15376 x2 + 15377 x3 + 15410 x4 + 15411 x5 + 15412 x6 + 15445 x7
     + 15446 x8 + 15447 x9 + 16065 x10 + 16066 x11 + 16067 x12 + 16100 x13
     + 16101 x14 + 16102 x15 + 16135 x16 + 16136 x17 + 16137 x18 + 16755 x19
     + 16756 x20 + 16757 x21 + 16790 x22 + 16791 x23 + 15376 x24 + 15410 x25
     + 15411 x26 + 15412 x27 + 15445 x28 + 15446 x29 + 16065 x30 + 16066 x31
     + 16067 x32 + 16100 x33 + 16101 x34 + 16135 x35 + 16136 x36 + 16137 x37
     + 16757 x38 + 16791 x39 + 16792 x40 + 16825 x41 + 16826 x42 + 30026 x43
     + 30027 x44 + 30028 x45 + 30061 x46 + 30096 x47 + 30097 x48 + 30098 x49
     + 30716 x50 <= 457005
Bounds
 0 <= x1 <= 1
 0 <= x2 <= 1
 0 <= x3 <= 1
 0 <= x4 <= 1
 0 <= x5 <= 1
 0 <= x6 <= 1
 0 <= x7 <= 1
 0 <= x8 <= 1
 0 <= x9 <= 1
 0 <= x10 <= 1
 0 <= x11 <= 1
 0 <= x12 <= 1
 0 <= x13 <= 1
 0 <= x14 <= 1
 0 <= x15 <= 1
 0 <= x16 <= 1
 0 <= x17 <= 1
 0 <= x18 <= 1
 0 <= x19 <= 1
 0 <= x20 <= 1
 0 <= x21 <= 1
 0 <= x22 <= 1
 0 <= x23 <= 1
 0 <= x24 <= 1
 0 <= x25 <= 1
 0 <= x26 <= 1
 0 <= x27 <= 1
 0 <= x28 <= 1
 0 <= x29 <= 1
 0 <= x30 <= 1
 0 <= x31 <= 1
 0 <= x32 <= 1
 0 <= x33 <= 1
 0 <= x34 <= 1
 0 <= x35 <= 1
 0 <= x36 <= 1
 0 <= x37 <= 1
 0 <= x38 <= 1
 0 <= x39 <= 1
 0 <= x40 <= 1
 0 <= x41 <= 1
 0 <= x42 <= 1
 0 <= x43 <= 1
 0 <= x44 <= 1
 0 <= x45 <= 1
 0 <= x46 <= 1
 0 <= x47 <= 1
 0 <= x48 <= 1
 0 <= x49 <= 1
 0 <= x50 <= 1
Binaries
 x1  x2  x3  x4  x5  x6  x7  x8  x9  x10  x11  x12  x13  x14  x15  x16  x17 
 x18  x19  x20  x21  x22  x23  x24  x25  x26  x27  x28  x29  x30  x31  x32 
 x33  x34  x35  x36  x37  x38  x39  x40  x41  x42  x43  x44  x45  x46  x47 
 x48  x49  x50 
End
